tf.Tensor(
[[   5   13   16    1   11   15    8   13    3    9    6   10   14    4
    15    1    7    6    2    3    9    6    8    1    5    6    7    1
     1   10   16    1   13    3    2    1    1    0    0    0    0    0
     0    0    0    0    0    0    0    0    0    0    0    0    0    0
     0    0    0    0    0    0    0    0    0    0    0    0    0    0
     0    0    0    0    0  286  286  286  257   84   84   84  127   90
    94  112 2739 2739   96   96  592  577  577  569  739  706 1021  706
   706 2092  577  577 1141 1974 2739 2739 1158 1156 1156  569 1974  441
     0    0    0    0    0    0    0    0    0    0    0    0    0    0
     0    0    0    0    0    0    0    0    0    0    0    0    0    0
     0    0    0    0    0    0    0    0    0    0]], shape=(1, 150), dtype=int32)